certificates/rado_a13_c70_N40.cnf
c Rad2 upper bound instance: x1 + 13*x2 - x3 = 70, interval [1,40]
p cnf 40 244
1 6 9 0
-1 -6 -9 0
1 7 22 0
-1 -7 -22 0
1 8 35 0
-1 -8 -35 0
2 6 10 0
-2 -6 -10 0
2 7 23 0
-2 -7 -23 0
2 8 36 0
-2 -8 -36 0
3 6 11 0
-3 -6 -11 0
3 7 24 0
-3 -7 -24 0
3 8 37 0
-3 -8 -37 0
4 6 12 0
-4 -6 -12 0
4 7 25 0
-4 -7 -25 0
4 8 38 0
-4 -8 -38 0
5 6 13 0
-5 -6 -13 0
5 7 26 0
-5 -7 -26 0
5 8 39 0
-5 -8 -39 0
1 5 6 0
-1 -5 -6 0
6 14 0
-6 -14 0
6 7 27 0
-6 -7 -27 0
6 8 40 0
-6 -8 -40 0
2 5 7 0
-2 -5 -7 0
6 7 15 0
-6 -7 -15 0
7 28 0
-7 -28 0
3 5 8 0
-3 -5 -8 0
6 8 16 0
-6 -8 -16 0
7 8 29 0
-7 -8 -29 0
4 5 9 0
-4 -5 -9 0
6 9 17 0
-6 -9 -17 0
7 9 30 0
-7 -9 -30 0
5 10 0
-5 -10 0
6 10 18 0
-6 -10 -18 0
7 10 31 0
-7 -10 -31 0
5 6 11 0
-5 -6 -11 0
6 11 19 0
-6 -11 -19 0
7 11 32 0
-7 -11 -32 0
5 7 12 0
-5 -7 -12 0
6 12 20 0
-6 -12 -20 0
7 12 33 0
-7 -12 -33 0
5 8 13 0
-5 -8 -13 0
6 13 21 0
-6 -13 -21 0
7 13 34 0
-7 -13 -34 0
5 9 14 0
-5 -9 -14 0
6 14 22 0
-6 -14 -22 0
7 14 35 0
-7 -14 -35 0
5 10 15 0
-5 -10 -15 0
6 15 23 0
-6 -15 -23 0
7 15 36 0
-7 -15 -36 0
5 11 16 0
-5 -11 -16 0
6 16 24 0
-6 -16 -24 0
7 16 37 0
-7 -16 -37 0
5 12 17 0
-5 -12 -17 0
6 17 25 0
-6 -17 -25 0
7 17 38 0
-7 -17 -38 0
5 13 18 0
-5 -13 -18 0
6 18 26 0
-6 -18 -26 0
7 18 39 0
-7 -18 -39 0
1 4 19 0
-1 -4 -19 0
5 14 19 0
-5 -14 -19 0
6 19 27 0
-6 -19 -27 0
7 19 40 0
-7 -19 -40 0
2 4 20 0
-2 -4 -20 0
5 15 20 0
-5 -15 -20 0
6 20 28 0
-6 -20 -28 0
3 4 21 0
-3 -4 -21 0
5 16 21 0
-5 -16 -21 0
6 21 29 0
-6 -21 -29 0
4 22 0
-4 -22 0
5 17 22 0
-5 -17 -22 0
6 22 30 0
-6 -22 -30 0
4 5 23 0
-4 -5 -23 0
5 18 23 0
-5 -18 -23 0
6 23 31 0
-6 -23 -31 0
4 6 24 0
-4 -6 -24 0
5 19 24 0
-5 -19 -24 0
6 24 32 0
-6 -24 -32 0
5 20 25 0
-5 -20 -25 0
6 25 33 0
-6 -25 -33 0
4 8 26 0
-4 -8 -26 0
5 21 26 0
-5 -21 -26 0
6 26 34 0
-6 -26 -34 0
4 9 27 0
-4 -9 -27 0
5 22 27 0
-5 -22 -27 0
6 27 35 0
-6 -27 -35 0
4 10 28 0
-4 -10 -28 0
5 23 28 0
-5 -23 -28 0
6 28 36 0
-6 -28 -36 0
4 11 29 0
-4 -11 -29 0
5 24 29 0
-5 -24 -29 0
6 29 37 0
-6 -29 -37 0
4 12 30 0
-4 -12 -30 0
5 25 30 0
-5 -25 -30 0
6 30 38 0
-6 -30 -38 0
4 13 31 0
-4 -13 -31 0
5 26 31 0
-5 -26 -31 0
6 31 39 0
-6 -31 -39 0
1 3 32 0
-1 -3 -32 0
4 14 32 0
-4 -14 -32 0
5 27 32 0
-5 -27 -32 0
6 32 40 0
-6 -32 -40 0
2 3 33 0
-2 -3 -33 0
4 15 33 0
-4 -15 -33 0
5 28 33 0
-5 -28 -33 0
3 34 0
-3 -34 0
4 16 34 0
-4 -16 -34 0
5 29 34 0
-5 -29 -34 0
3 4 35 0
-3 -4 -35 0
4 17 35 0
-4 -17 -35 0
5 30 35 0
-5 -30 -35 0
3 5 36 0
-3 -5 -36 0
4 18 36 0
-4 -18 -36 0
5 31 36 0
-5 -31 -36 0
3 6 37 0
-3 -6 -37 0
4 19 37 0
-4 -19 -37 0
5 32 37 0
-5 -32 -37 0
3 7 38 0
-3 -7 -38 0
4 20 38 0
-4 -20 -38 0
5 33 38 0
-5 -33 -38 0
3 8 39 0
-3 -8 -39 0
4 21 39 0
-4 -21 -39 0
5 34 39 0
-5 -34 -39 0
3 9 40 0
-3 -9 -40 0
4 22 40 0
-4 -22 -40 0
5 35 40 0
-5 -35 -40 0
