certificates/rado_a13_c70_N40.drat
-8 -35 -40 0
-35 -40 0
d -5 -35 -40 0
5 8 -38 -40 0
-5 -36 -39 0
-8 -37 -38 35 0
-37 -38 -39 -40 0
8 37 -38 -40 0
-38 -39 -40 0
d -37 -38 -39 -40 0
-8 -39 -40 0
3 8 -39 0
-5 21 -1 0
-39 -40 0
d -8 -39 -40 0
d -38 -39 -40 0
8 -40 0
d 37 -38 8 -40 0
d 5 8 -38 -40 0
-5 -40 0
-40 0
6 5 0
5 0
-10 0
-4 -35 0
d -4 -3 -35 0
8 -6 0
-6 0
14 0
32 0
8 0
2 0
18 0
-19 0
-9 0
-27 0
-37 0
-4 0
-39 0
-13 0
-3 0
-7 0
-36 0
-23 0
0
